Route #1: 1 42 43 63 3 44 32 17 58 35 46 75 45 74 28 2 1 
Route #2: 1 64 61 48 30 27 13 54 53 11 65 39 72 7 34 67 1 
Route #3: 1 1 41 56 23 49 55 51 68 8 52 29 5 15 57 37 20 60 71 36 69 22 73 1 
Route #4: 1 62 4 10 9 25 18 24 40 12 6 16 33 1 
Route #5: 1 21 47 70 19 14 59 66 38 31 50 26 1 

Cost 1089.68
Time 0.3862


 * Another infos *

 Iterations: 76 Time: 0.3862 sec - 0.0064 min - 0.0001 horas
0.0000 h 0.0064 min
Problem dimension: 76
